(set-info :smt-lib-version 2.6)
(set-info :category "crafted")
(set-logic QF_FFA)
(define-sort FF0 () (_ FiniteField 52435875175126190479447740508185965837690552500527637822603658699938581184513))
(declare-fun out_alt () FF0)
(declare-fun _22_alt () FF0)
(declare-fun _19_alt () FF0)
(declare-fun _18_alt () FF0)
(declare-fun _8_alt () FF0)
(declare-fun _7_alt () FF0)
(declare-fun _12_alt () FF0)
(declare-fun _13_alt () FF0)
(declare-fun _1_alt () FF0)
(declare-fun _11_alt () FF0)
(declare-fun _0_alt () FF0)
(declare-fun _2_alt () FF0)
(declare-fun out () FF0)
(declare-fun _22 () FF0)
(declare-fun _19 () FF0)
(declare-fun _18 () FF0)
(declare-fun _8 () FF0)
(declare-fun _7 () FF0)
(declare-fun _12 () FF0)
(declare-fun _13 () FF0)
(declare-fun _1 () FF0)
(declare-fun _11 () FF0)
(declare-fun _0 () FF0)
(declare-fun _2 () FF0)
(assert 
  (let ((let0 out_alt))
  (let ((let1 _22_alt))
  (let ((let2 (= let1 let0)))
  (let ((let3 _19_alt))
  (let ((let4 _18_alt))
  (let ((let5 (ff.add let4 let3)))
  (let ((let6 _8_alt))
  (let ((let7 _7_alt))
  (let ((let8 (ff.add let7 let6)))
  (let ((let9 (ff.mul let8 let5)))
  (let ((let10 (= let9 let1)))
  (let ((let11 _12_alt))
  (let ((let12 _13_alt))
  (let ((let13 (ff.mul let12 let11)))
  (let ((let14 (= let13 let3)))
  (let ((let15 (as ff52435875175126190479447740508185965837690552500527637822603658699938581184512 FF0)))
  (let ((let16 _1_alt))
  (let ((let17 (ff.mul let16 let15)))
  (let ((let18 (ff.add let17 let11)))
  (let ((let19 (ff.mul let18 let18)))
  (let ((let20 (= let19 let12)))
  (let ((let21 (ff.mul let11 let15)))
  (let ((let22 _11_alt))
  (let ((let23 _0_alt))
  (let ((let24 (ff.add let23 let22 let21)))
  (let ((let25 (ff.mul let22 let23)))
  (let ((let26 (= let25 let24)))
  (let ((let27 (as ff1 FF0)))
  (let ((let28 (ff.mul let22 let15)))
  (let ((let29 (ff.add let28 let27)))
  (let ((let30 (ff.mul let6 let15)))
  (let ((let31 (ff.mul let7 let15)))
  (let ((let32 (ff.add let31 let30 let27)))
  (let ((let33 (ff.mul let8 let32)))
  (let ((let34 (= let33 let29)))
  (let ((let35 _2_alt))
  (let ((let36 (ff.mul let35 let15)))
  (let ((let37 (ff.add let36 let27)))
  (let ((let38 (ff.mul let35 let37)))
  (let ((let39 (= let38 let6)))
  (let ((let40 (ff.mul let37 let16)))
  (let ((let41 (= let40 let7)))
  (let ((let42 (ff.add let23 let17)))
  (let ((let43 (ff.mul let42 let42)))
  (let ((let44 (= let43 let35)))
  (let ((let45 (ff.mul let16 let16)))
  (let ((let46 (= let45 let16)))
  (let ((let47 (ff.mul let23 let23)))
  (let ((let48 (= let47 let23)))
  (let ((let49 (and let48 let46 let44 let41 let39 let34 let26 let20 let14 let10 let2)))
  (let ((let50 out))
  (let ((let51 _22))
  (let ((let52 (= let51 let50)))
  (let ((let53 _19))
  (let ((let54 _18))
  (let ((let55 (ff.add let54 let53)))
  (let ((let56 _8))
  (let ((let57 _7))
  (let ((let58 (ff.add let57 let56)))
  (let ((let59 (ff.mul let58 let55)))
  (let ((let60 (= let59 let51)))
  (let ((let61 _12))
  (let ((let62 _13))
  (let ((let63 (ff.mul let62 let61)))
  (let ((let64 (= let63 let53)))
  (let ((let65 _1))
  (let ((let66 (ff.mul let65 let15)))
  (let ((let67 (ff.add let66 let61)))
  (let ((let68 (ff.mul let67 let67)))
  (let ((let69 (= let68 let62)))
  (let ((let70 (ff.mul let61 let15)))
  (let ((let71 _11))
  (let ((let72 _0))
  (let ((let73 (ff.add let72 let71 let70)))
  (let ((let74 (ff.mul let71 let72)))
  (let ((let75 (= let74 let73)))
  (let ((let76 (ff.mul let71 let15)))
  (let ((let77 (ff.add let76 let27)))
  (let ((let78 (ff.mul let56 let15)))
  (let ((let79 (ff.mul let57 let15)))
  (let ((let80 (ff.add let79 let78 let27)))
  (let ((let81 (ff.mul let58 let80)))
  (let ((let82 (= let81 let77)))
  (let ((let83 _2))
  (let ((let84 (ff.mul let83 let15)))
  (let ((let85 (ff.add let84 let27)))
  (let ((let86 (ff.mul let83 let85)))
  (let ((let87 (= let86 let56)))
  (let ((let88 (ff.mul let85 let65)))
  (let ((let89 (= let88 let57)))
  (let ((let90 (ff.add let72 let66)))
  (let ((let91 (ff.mul let90 let90)))
  (let ((let92 (= let91 let83)))
  (let ((let93 (ff.mul let65 let65)))
  (let ((let94 (= let93 let65)))
  (let ((let95 (ff.mul let72 let72)))
  (let ((let96 (= let95 let72)))
  (let ((let97 (and let96 let94 let92 let89 let87 let82 let75 let69 let64 let60 let52)))
  (let ((let98 (= let50 let0)))
  (let ((let99 (not let98)))
  (let ((let100 (= let72 let23)))
  (let ((let101 (= let65 let16)))
  (let ((let102 (and let101 let100)))
  (let ((let103 (and let102 let99 let97 let49)))
  let103
))))))))))))))))))))))))))))))))))))))))))))))))))))))))))))))))))))))))))))))))))))))))))))))))))))))))
)
(check-sat)
